TCS_Benchmarks/redos_fix/snort3_output_distinct_3153_3152_8_0.txt
((.|\n|\r)*)([^;\s=]+)
((.|\n|\r)*)(\.[pP][oO][sS][tT][mM][eE][sS][sS][aA][gG][eE]\(\s*)([^;\s=]+)